50
4
7
4 5
2 5
3 0
2 2
3 1
2 4
3 6
3 3
1 3
4 7
3 6
1 3
3 2
3 5
1 1
1 5
4 1
3 4
1 7
1 1
3 4
2 2
1 3
1 7
3 0
4 3
2 0
4 6
2 4
3 0
1 6
3 2
2 5
4 4
3 2
3 3
4 6
3 2
4 6
4 3
4 4
4 6
1 6
3 0
3 0
2 2
2 6
4 5
4 3
4 1
